
;this file is automatically generated: Mon Nov 02 10:43:03 CST 2020

;declarations generated

(declare-fun oclExcludes ( Int Int) Bool)
(declare-fun Cardinality ( Int) Int)
(declare-fun class14_Class14IntAttr6 ( Int) Int)
(declare-fun type_e3d37a31_2def_4d9c_9192_585ecc86d1a2_Class2 ( Int) Bool)
(declare-fun type_e3d37a31_2def_4d9c_9192_585ecc86d1a2_Class3 ( Int) Bool)
(declare-fun type_e3d37a31_2def_4d9c_9192_585ecc86d1a2_Class0 ( Int) Bool)
(declare-fun type_e3d37a31_2def_4d9c_9192_585ecc86d1a2_Class1 ( Int) Bool)
(declare-fun type_e3d37a31_2def_4d9c_9192_585ecc86d1a2_Class6 ( Int) Bool)
(declare-fun type_e3d37a31_2def_4d9c_9192_585ecc86d1a2_Class7 ( Int) Bool)
(declare-fun type_e3d37a31_2def_4d9c_9192_585ecc86d1a2_Class4 ( Int) Bool)
(declare-fun type_e3d37a31_2def_4d9c_9192_585ecc86d1a2_Class5 ( Int) Bool)
(declare-fun type_e3d37a31_2def_4d9c_9192_585ecc86d1a2_Class8 ( Int) Bool)
(declare-fun type_e3d37a31_2def_4d9c_9192_585ecc86d1a2_Class9 ( Int) Bool)
(declare-fun obj_f1d65201_dda4_48db_8323_7c43ae225ed5 ( Int) Int)
(declare-fun oclSelect ( Int Bool) Int)
(declare-fun Enum0 ( Int) Int)
(declare-fun Enum1 ( Int) Int)
(declare-fun Enum2 ( Int) Int)
(declare-fun container_ ( Int) Int)
(declare-fun type_e3d37a31_2def_4d9c_9192_585ecc86d1a2_Class16 ( Int) Bool)
(declare-fun type_e3d37a31_2def_4d9c_9192_585ecc86d1a2_Class15 ( Int) Bool)
(declare-fun type_e3d37a31_2def_4d9c_9192_585ecc86d1a2_Class17 ( Int) Bool)
(declare-fun type_e3d37a31_2def_4d9c_9192_585ecc86d1a2_Class12 ( Int) Bool)
(declare-fun type_e3d37a31_2def_4d9c_9192_585ecc86d1a2_Class11 ( Int) Bool)
(declare-fun type_e3d37a31_2def_4d9c_9192_585ecc86d1a2_Class14 ( Int) Bool)
(declare-fun type_e3d37a31_2def_4d9c_9192_585ecc86d1a2_Class13 ( Int) Bool)
(declare-fun oclIncludes ( Int Int) Bool)
(declare-fun type_e3d37a31_2def_4d9c_9192_585ecc86d1a2_Class10 ( Int) Bool)
(declare-fun ObjAt ( Int Int) Int)

;formula(s) generated
(assert (forall ((p Int)) (=> ( type_e3d37a31_2def_4d9c_9192_585ecc86d1a2_Class14 p )  (and (>= ( Enum0 ( obj_f1d65201_dda4_48db_8323_7c43ae225ed5 p )  )  0) (<= ( Enum0 ( obj_f1d65201_dda4_48db_8323_7c43ae225ed5 p )  )  4)))))
(assert (forall ((p Int)) (=> ( type_e3d37a31_2def_4d9c_9192_585ecc86d1a2_Class14 p )  (and (>= ( Enum0 ( obj_f1d65201_dda4_48db_8323_7c43ae225ed5 p )  )  0) (<= ( Enum0 ( obj_f1d65201_dda4_48db_8323_7c43ae225ed5 p )  )  4)))))
(assert (! (forall ((v Int)) (=> ( type_e3d37a31_2def_4d9c_9192_585ecc86d1a2_Class14 v )  (= ( Enum0 ( obj_f1d65201_dda4_48db_8323_7c43ae225ed5 v )  )  2))):named l0))
(assert (! (forall ((v Int)) (=> ( type_e3d37a31_2def_4d9c_9192_585ecc86d1a2_Class14 v )  (= ( Enum0 ( obj_f1d65201_dda4_48db_8323_7c43ae225ed5 v )  )  0))):named l1))
(assert (! (or (forall ((v Int)) (=> ( type_e3d37a31_2def_4d9c_9192_585ecc86d1a2_Class14 v )  (= ( Enum0 ( obj_f1d65201_dda4_48db_8323_7c43ae225ed5 v )  )  3))) (forall ((v Int)) (=> ( type_e3d37a31_2def_4d9c_9192_585ecc86d1a2_Class14 v )  (< ( class14_Class14IntAttr6 ( obj_f1d65201_dda4_48db_8323_7c43ae225ed5 v )  )  11)))):named l2))
(assert (! (or (forall ((v Int)) (=> ( type_e3d37a31_2def_4d9c_9192_585ecc86d1a2_Class14 v )  (not (= ( Enum0 ( obj_f1d65201_dda4_48db_8323_7c43ae225ed5 v )  )  2) ))) (forall ((v Int)) (=> ( type_e3d37a31_2def_4d9c_9192_585ecc86d1a2_Class14 v )  (= ( Enum0 ( obj_f1d65201_dda4_48db_8323_7c43ae225ed5 v )  )  2)))):named l3))
(assert (! (exists ((o Int)) ( type_e3d37a31_2def_4d9c_9192_585ecc86d1a2_Class0 ( obj_f1d65201_dda4_48db_8323_7c43ae225ed5 o )  ) ):named c0))
(assert (! (exists ((o Int)) ( type_e3d37a31_2def_4d9c_9192_585ecc86d1a2_Class1 ( obj_f1d65201_dda4_48db_8323_7c43ae225ed5 o )  ) ):named c1))
(assert (! (exists ((o Int)) (and (and ( type_e3d37a31_2def_4d9c_9192_585ecc86d1a2_Class10 ( obj_f1d65201_dda4_48db_8323_7c43ae225ed5 o )  )  ( type_e3d37a31_2def_4d9c_9192_585ecc86d1a2_Class14 ( obj_f1d65201_dda4_48db_8323_7c43ae225ed5 o )  ) ) ( type_e3d37a31_2def_4d9c_9192_585ecc86d1a2_Class16 ( obj_f1d65201_dda4_48db_8323_7c43ae225ed5 o )  ) )):named c2))
(assert (! (exists ((o Int)) ( type_e3d37a31_2def_4d9c_9192_585ecc86d1a2_Class11 ( obj_f1d65201_dda4_48db_8323_7c43ae225ed5 o )  ) ):named c3))
(assert (! (exists ((o Int)) ( type_e3d37a31_2def_4d9c_9192_585ecc86d1a2_Class12 ( obj_f1d65201_dda4_48db_8323_7c43ae225ed5 o )  ) ):named c4))
(assert (! (exists ((o Int)) ( type_e3d37a31_2def_4d9c_9192_585ecc86d1a2_Class13 ( obj_f1d65201_dda4_48db_8323_7c43ae225ed5 o )  ) ):named c5))
(assert (! (exists ((o Int)) ( type_e3d37a31_2def_4d9c_9192_585ecc86d1a2_Class14 ( obj_f1d65201_dda4_48db_8323_7c43ae225ed5 o )  ) ):named c6))
(assert (! (exists ((o Int)) ( type_e3d37a31_2def_4d9c_9192_585ecc86d1a2_Class15 ( obj_f1d65201_dda4_48db_8323_7c43ae225ed5 o )  ) ):named c7))
(assert (! (exists ((o Int)) (and ( type_e3d37a31_2def_4d9c_9192_585ecc86d1a2_Class16 ( obj_f1d65201_dda4_48db_8323_7c43ae225ed5 o )  )  ( type_e3d37a31_2def_4d9c_9192_585ecc86d1a2_Class14 ( obj_f1d65201_dda4_48db_8323_7c43ae225ed5 o )  ) )):named c8))
(assert (! (exists ((o Int)) ( type_e3d37a31_2def_4d9c_9192_585ecc86d1a2_Class17 ( obj_f1d65201_dda4_48db_8323_7c43ae225ed5 o )  ) ):named c9))
(assert (! (exists ((o Int)) ( type_e3d37a31_2def_4d9c_9192_585ecc86d1a2_Class2 ( obj_f1d65201_dda4_48db_8323_7c43ae225ed5 o )  ) ):named c10))
(assert (! (exists ((o Int)) ( type_e3d37a31_2def_4d9c_9192_585ecc86d1a2_Class3 ( obj_f1d65201_dda4_48db_8323_7c43ae225ed5 o )  ) ):named c11))
(assert (! (exists ((o Int)) ( type_e3d37a31_2def_4d9c_9192_585ecc86d1a2_Class4 ( obj_f1d65201_dda4_48db_8323_7c43ae225ed5 o )  ) ):named c12))
(assert (! (exists ((o Int)) ( type_e3d37a31_2def_4d9c_9192_585ecc86d1a2_Class5 ( obj_f1d65201_dda4_48db_8323_7c43ae225ed5 o )  ) ):named c13))
(assert (! (exists ((o Int)) ( type_e3d37a31_2def_4d9c_9192_585ecc86d1a2_Class6 ( obj_f1d65201_dda4_48db_8323_7c43ae225ed5 o )  ) ):named c14))
(assert (! (exists ((o Int)) ( type_e3d37a31_2def_4d9c_9192_585ecc86d1a2_Class7 ( obj_f1d65201_dda4_48db_8323_7c43ae225ed5 o )  ) ):named c15))
(assert (! (exists ((o Int)) ( type_e3d37a31_2def_4d9c_9192_585ecc86d1a2_Class8 ( obj_f1d65201_dda4_48db_8323_7c43ae225ed5 o )  ) ):named c16))
(assert (! (exists ((o Int)) ( type_e3d37a31_2def_4d9c_9192_585ecc86d1a2_Class9 ( obj_f1d65201_dda4_48db_8323_7c43ae225ed5 o )  ) ):named c17))

 ;end of formula 